1637633
17,45,65,20,13,54,1,19,49,23,60,5,29,25,30,41,64,38,67,7,43,46,34,55,26,66,11,6,56,40,32,12,42,3,21,31,22,52,33,57,18,10,14,44,53,37,39,62,51,35,68,8,15,36,50,28,59,16,63,61,24,47,4,48,2,9,58,27